Maximize
 0
Subject To
 epc_0!1: -49.465181751828325 y_1!1_2!1 +2.1633980062811986 y_1!2_2!1 +73.33933462098273 y_1!3_2!1 +11.667501871354176 y_1!1_2!2 -31.1648126188055 y_1!2_2!2 -15.810218661248413 y_1!3_2!2 -45.359658290420015 y_1!1_2!3 -11.589002101624189 y_1!2_2!3 +63.35489355388782 y_1!3_2!3 + lambda_0!1 - mu_0 = 0
 epc_0!2: -39.420020502010786 y_1!1_2!1 -7.591292145709701 y_1!2_2!1 -50.8127367444585 y_1!3_2!1 +33.5727711499444 y_1!1_2!2 -73.17163871911805 y_1!2_2!2 +21.116289152981096 y_1!3_2!2 +63.87771561613479 y_1!1_2!3 +83.59824196410773 y_1!2_2!3 -89.60647606787984 y_1!3_2!3 + lambda_0!2 - mu_0 = 0
 epc_0!3: -43.33413852607961 y_1!1_2!1 +16.00622281839668 y_1!2_2!1 +89.72671916429397 y_1!3_2!1 -86.36780429869523 y_1!1_2!2 -87.74709132220357 y_1!2_2!2 -31.351807224083146 y_1!3_2!2 -75.77621726413288 y_1!1_2!3 -51.42293854097639 y_1!2_2!3 +28.118683689906163 y_1!3_2!3 + lambda_0!3 - mu_0 = 0
 dc_0: x_0!1 + x_0!2 + x_0!3 = 1
 bc_0!1: lambda_0!1 +285.20970030515093 x_0!1 <= 285.20970030515093
 bc_0!2: lambda_0!2 +285.20970030515093 x_0!2 <= 285.20970030515093
 bc_0!3: lambda_0!3 +285.20970030515093 x_0!3 <= 285.20970030515093
 sum_0!1: y_1!1_2!1 - x_1!1 - x_2!1 >= -1
 idk_0!1!1: y_1!1_2!1 - x_1!1 <= 0
 idk_0!1!2: y_1!1_2!1 - x_2!1 <= 0
 sum_0!2: y_1!2_2!1 - x_1!2 - x_2!1 >= -1
 idk_0!2!1: y_1!2_2!1 - x_1!2 <= 0
 idk_0!2!2: y_1!2_2!1 - x_2!1 <= 0
 sum_0!3: y_1!3_2!1 - x_1!3 - x_2!1 >= -1
 idk_0!3!1: y_1!3_2!1 - x_1!3 <= 0
 idk_0!3!2: y_1!3_2!1 - x_2!1 <= 0
 sum_0!4: y_1!1_2!2 - x_1!1 - x_2!2 >= -1
 idk_0!4!1: y_1!1_2!2 - x_1!1 <= 0
 idk_0!4!2: y_1!1_2!2 - x_2!2 <= 0
 sum_0!5: y_1!2_2!2 - x_1!2 - x_2!2 >= -1
 idk_0!5!1: y_1!2_2!2 - x_1!2 <= 0
 idk_0!5!2: y_1!2_2!2 - x_2!2 <= 0
 sum_0!6: y_1!3_2!2 - x_1!3 - x_2!2 >= -1
 idk_0!6!1: y_1!3_2!2 - x_1!3 <= 0
 idk_0!6!2: y_1!3_2!2 - x_2!2 <= 0
 sum_0!7: y_1!1_2!3 - x_1!1 - x_2!3 >= -1
 idk_0!7!1: y_1!1_2!3 - x_1!1 <= 0
 idk_0!7!2: y_1!1_2!3 - x_2!3 <= 0
 sum_0!8: y_1!2_2!3 - x_1!2 - x_2!3 >= -1
 idk_0!8!1: y_1!2_2!3 - x_1!2 <= 0
 idk_0!8!2: y_1!2_2!3 - x_2!3 <= 0
 sum_0!9: y_1!3_2!3 - x_1!3 - x_2!3 >= -1
 idk_0!9!1: y_1!3_2!3 - x_1!3 <= 0
 idk_0!9!2: y_1!3_2!3 - x_2!3 <= 0
 epc_1!1: +75.65597994253886 y_0!1_2!1 +39.962360690146255 y_0!2_2!1 -4.753945153095685 y_0!3_2!1 -59.86389350574659 y_0!1_2!2 +18.314539648498382 y_0!2_2!2 +38.37187446303446 y_0!3_2!2 +85.77795685835315 y_0!1_2!3 -12.797097946923202 y_0!2_2!3 +62.773345122907074 y_0!3_2!3 + lambda_1!1 - mu_1 = 0
 epc_1!2: +45.237853607011175 y_0!1_2!1 -59.780795806957364 y_0!2_2!1 -90.69788070330821 y_0!3_2!1 -27.682557401505022 y_0!1_2!2 +62.028181332588815 y_0!2_2!2 +20.047364179416974 y_0!3_2!2 +80.57181103168574 y_0!1_2!3 -69.04205012550742 y_0!2_2!3 -41.543504360485485 y_0!3_2!3 + lambda_1!2 - mu_1 = 0
 epc_1!3: -99.43174344679781 y_0!1_2!1 -34.98119090769285 y_0!2_2!1 -28.82563751992447 y_0!3_2!1 -35.42617087165509 y_0!1_2!2 +48.75072674510136 y_0!2_2!2 +78.21713908981434 y_0!3_2!2 -14.15788918275058 y_0!1_2!3 -54.43027013434578 y_0!2_2!3 -8.303519787628815 y_0!3_2!3 + lambda_1!3 - mu_1 = 0
 dc_1: x_1!1 + x_1!2 + x_1!3 = 1
 bc_1!1: lambda_1!1 +285.20970030515093 x_1!1 <= 285.20970030515093
 bc_1!2: lambda_1!2 +285.20970030515093 x_1!2 <= 285.20970030515093
 bc_1!3: lambda_1!3 +285.20970030515093 x_1!3 <= 285.20970030515093
 sum_1!1: y_0!1_2!1 - x_0!1 - x_2!1 >= -1
 idk_1!1!0: y_0!1_2!1 - x_0!1 <= 0
 idk_1!1!2: y_0!1_2!1 - x_2!1 <= 0
 sum_1!2: y_0!2_2!1 - x_0!2 - x_2!1 >= -1
 idk_1!2!0: y_0!2_2!1 - x_0!2 <= 0
 idk_1!2!2: y_0!2_2!1 - x_2!1 <= 0
 sum_1!3: y_0!3_2!1 - x_0!3 - x_2!1 >= -1
 idk_1!3!0: y_0!3_2!1 - x_0!3 <= 0
 idk_1!3!2: y_0!3_2!1 - x_2!1 <= 0
 sum_1!4: y_0!1_2!2 - x_0!1 - x_2!2 >= -1
 idk_1!4!0: y_0!1_2!2 - x_0!1 <= 0
 idk_1!4!2: y_0!1_2!2 - x_2!2 <= 0
 sum_1!5: y_0!2_2!2 - x_0!2 - x_2!2 >= -1
 idk_1!5!0: y_0!2_2!2 - x_0!2 <= 0
 idk_1!5!2: y_0!2_2!2 - x_2!2 <= 0
 sum_1!6: y_0!3_2!2 - x_0!3 - x_2!2 >= -1
 idk_1!6!0: y_0!3_2!2 - x_0!3 <= 0
 idk_1!6!2: y_0!3_2!2 - x_2!2 <= 0
 sum_1!7: y_0!1_2!3 - x_0!1 - x_2!3 >= -1
 idk_1!7!0: y_0!1_2!3 - x_0!1 <= 0
 idk_1!7!2: y_0!1_2!3 - x_2!3 <= 0
 sum_1!8: y_0!2_2!3 - x_0!2 - x_2!3 >= -1
 idk_1!8!0: y_0!2_2!3 - x_0!2 <= 0
 idk_1!8!2: y_0!2_2!3 - x_2!3 <= 0
 sum_1!9: y_0!3_2!3 - x_0!3 - x_2!3 >= -1
 idk_1!9!0: y_0!3_2!3 - x_0!3 <= 0
 idk_1!9!2: y_0!3_2!3 - x_2!3 <= 0
 epc_2!1: +18.847240338722955 y_0!1_1!1 -7.396522020140367 y_0!2_1!1 +98.74945695996925 y_0!3_1!1 -77.2137448486902 y_0!1_1!2 -61.97228442775027 y_0!2_1!2 +98.43799488675901 y_0!3_1!2 -34.0165260567144 y_0!1_1!3 -34.541534715514004 y_0!2_1!3 -80.86219499273888 y_0!3_1!3 + lambda_2!1 - mu_2 = 0
 epc_2!2: +27.98763629550713 y_0!1_1!1 +17.085429366790166 y_0!2_1!1 +7.98336752331106 y_0!3_1!1 +17.028012474055103 y_0!1_1!2 -75.83248504456802 y_0!2_1!2 +4.3654607800346525 y_0!3_1!2 -20.392619873298926 y_0!1_1!3 +58.05099315054673 y_0!2_1!3 -58.02746894854196 y_0!3_1!3 + lambda_2!2 - mu_2 = 0
 epc_2!3: +17.566517327957214 y_0!1_1!1 -77.48600255713342 y_0!2_1!1 -49.11149198010496 y_0!3_1!1 -33.71972238409771 y_0!1_1!2 -20.895083584561448 y_0!2_1!2 +61.11411236250177 y_0!3_1!2 +24.70011985804146 y_0!1_1!3 +57.541849545824306 y_0!2_1!3 +10.111076389312117 y_0!3_1!3 + lambda_2!3 - mu_2 = 0
 dc_2: x_2!1 + x_2!2 + x_2!3 = 1
 bc_2!1: lambda_2!1 +285.20970030515093 x_2!1 <= 285.20970030515093
 bc_2!2: lambda_2!2 +285.20970030515093 x_2!2 <= 285.20970030515093
 bc_2!3: lambda_2!3 +285.20970030515093 x_2!3 <= 285.20970030515093
 sum_2!1: y_0!1_1!1 - x_0!1 - x_1!1 >= -1
 idk_2!1!0: y_0!1_1!1 - x_0!1 <= 0
 idk_2!1!1: y_0!1_1!1 - x_1!1 <= 0
 sum_2!2: y_0!2_1!1 - x_0!2 - x_1!1 >= -1
 idk_2!2!0: y_0!2_1!1 - x_0!2 <= 0
 idk_2!2!1: y_0!2_1!1 - x_1!1 <= 0
 sum_2!3: y_0!3_1!1 - x_0!3 - x_1!1 >= -1
 idk_2!3!0: y_0!3_1!1 - x_0!3 <= 0
 idk_2!3!1: y_0!3_1!1 - x_1!1 <= 0
 sum_2!4: y_0!1_1!2 - x_0!1 - x_1!2 >= -1
 idk_2!4!0: y_0!1_1!2 - x_0!1 <= 0
 idk_2!4!1: y_0!1_1!2 - x_1!2 <= 0
 sum_2!5: y_0!2_1!2 - x_0!2 - x_1!2 >= -1
 idk_2!5!0: y_0!2_1!2 - x_0!2 <= 0
 idk_2!5!1: y_0!2_1!2 - x_1!2 <= 0
 sum_2!6: y_0!3_1!2 - x_0!3 - x_1!2 >= -1
 idk_2!6!0: y_0!3_1!2 - x_0!3 <= 0
 idk_2!6!1: y_0!3_1!2 - x_1!2 <= 0
 sum_2!7: y_0!1_1!3 - x_0!1 - x_1!3 >= -1
 idk_2!7!0: y_0!1_1!3 - x_0!1 <= 0
 idk_2!7!1: y_0!1_1!3 - x_1!3 <= 0
 sum_2!8: y_0!2_1!3 - x_0!2 - x_1!3 >= -1
 idk_2!8!0: y_0!2_1!3 - x_0!2 <= 0
 idk_2!8!1: y_0!2_1!3 - x_1!3 <= 0
 sum_2!9: y_0!3_1!3 - x_0!3 - x_1!3 >= -1
 idk_2!9!0: y_0!3_1!3 - x_0!3 <= 0
 idk_2!9!1: y_0!3_1!3 - x_1!3 <= 0
Bounds
 mu_0 free
 mu_1 free
 mu_2 free
Binary
 x_0!1 x_0!2 x_0!3 x_1!1 x_1!2 x_1!3 x_2!1 x_2!2 x_2!3
End
